n = 63;
k = 3;
roles = [
{m, f},
{g, m},
{g, d},
{m, g},
{f, m},
{g, d},
{m, g},
{g, d},
{g, d},
{g, d},
{f, d},
{m, g},
{m, g},
{d, g},
{m, g},
{g, d},
{g, m},
{f, m},
{f, g},
{m, d},
{m, f},
{g, f},
{f, m},
{m, g},
{d, g},
{m, g},
{f, m},
{g, m},
{d, g},
{d, f},
{f, d},
{f, m},
{f, d},
{g, f},
{g, d},
{d, m},
{g, d},
{m, f},
{g, d},
{g, f},
{f, m},
{d, g},
{m, g},
{d, g},
{f, m},
{m, f},
{d, m},
{m, d},
{g, m},
{f, d},
{m, f},
{m, g},
{f, g},
{g, d},
{m, f},
{d, f},
{g, f},
{g, d},
{g, m},
{d, g},
{f, g},
{m, g},
{g, d}
];
num_pairs = 1;
player1 = [26];
player2 = [23];
